#Optional input for intel package
#package intel 0 mode mixed balance -1
#package omp 0
#suffix intel
#processors * * * grid numa

variable 	thermo_print equal 5
variable	total_step equal ${thermo_print}*10
units		real
boundary	p p p
neighbor        2.0 bin
neigh_modify    delay 10 every 1
atom_style	full
bond_style      harmonic
angle_style     harmonic
dihedral_style  harmonic
pair_style      lj/cut/coul/long 10.0
pair_modify     mix arithmetic
kspace_style    pppm 1e-4
read_data       data.begin
replicate	4 4 4
fix             microcanonical all nve
timestep	1
thermo          ${thermo_print}
#restart		${total_step} large
run             ${total_step}
#write_data	data.large


