Si box
1.0
       21.3887023926         0.0000000000         0.0000000000
       10.6943511963        18.5231596260         0.0000000000
       10.6943511963         6.1743865420        17.4638023740
   Si
  384
Direct
     0.427532869         0.160228792         0.309018194
     0.427532841         0.160228788         0.809018166
     0.427532832         0.660228776         0.309018194
     0.427532836         0.660228797         0.809018166
     0.927532824         0.160228792         0.309018194
     0.927532841         0.160228788         0.809018166
     0.927532832         0.660228776         0.309018194
     0.927532925         0.660228797         0.809018166
     0.302272730         0.027318979         0.081484021
     0.302272712         0.027319000         0.581483993
     0.302272742         0.527318911         0.081484021
     0.302272701         0.527318932         0.581483993
     0.802272664         0.027318979         0.081484021
     0.802272667         0.027319000         0.581483993
     0.802272697         0.527318911         0.081484021
     0.802272701         0.527318932         0.581483993
     0.240194455         0.149981761         0.006562573
     0.240194466         0.149981767         0.506562591
     0.240194512         0.649981694         0.006562573
     0.240194500         0.649981699         0.506562591
     0.740194478         0.149981761         0.006562573
     0.740194466         0.149981767         0.506562591
     0.740194512         0.649981694         0.006562573
     0.740194500         0.649981699         0.506562591
     0.420675214         0.379904758         0.095889074
     0.420675170         0.379904738         0.595889094
     0.420675165         0.879904768         0.095889074
     0.420675178         0.879904722         0.595889094
     0.920675259         0.379904758         0.095889074
     0.920675259         0.379904738         0.595889094
     0.920675254         0.879904768         0.095889074
     0.920675356         0.879904722         0.595889094
     0.487708128         0.306708557         0.371068205
     0.487708104         0.306708551         0.871068259
     0.487708136         0.806708541         0.371068205
     0.487708138         0.806708483         0.871068259
     0.987708128         0.306708557         0.371068205
     0.987708015         0.306708551         0.871068259
     0.987708047         0.806708541         0.371068205
     0.987708049         0.806708483         0.871068259
     0.133411466         0.003325137         0.001557030
     0.133411477         0.003325133         0.501557055
     0.133411487         0.503325139         0.001557030
     0.133411517         0.503325143         0.501557055
     0.633411488         0.003325137         0.001557030
     0.633411477         0.003325133         0.501557055
     0.633411487         0.503325139         0.001557030
     0.633411473         0.503325143         0.501557055
     0.446788914         0.166208641         0.476786908
     0.446788903         0.166208609         0.976786962
     0.446788846         0.666208599         0.476786908
     0.446788848         0.666208541         0.976786962
     0.946788914         0.166208641         0.476786908
     0.946788903         0.166208609         0.976786962
     0.946788935         0.666208599         0.476786908
     0.946788937         0.666208541         0.976786962
     0.026380463         0.262465810         0.264687236
     0.026380426         0.262465813         0.764687262
     0.026380449         0.762465794         0.264687236
     0.026380460         0.762465745         0.764687262
     0.526380441         0.262465810         0.264687236
     0.526380426         0.262465813         0.764687262
     0.526380449         0.762465794         0.264687236
     0.526380460         0.762465745         0.764687262
     0.219804455         0.378241630         0.283292779
     0.219804414         0.378241651         0.783292750
     0.219804393         0.878241666         0.283292779
     0.219804422         0.878241635         0.783292750
     0.719804500         0.378241630         0.283292779
     0.719804503         0.378241651         0.783292750
     0.719804482         0.878241666         0.283292779
     0.719804422         0.878241635         0.783292750
     0.295392978         0.259901667         0.179086298
     0.295392977         0.259901645         0.679086324
     0.295392999         0.759901626         0.179086298
     0.295392985         0.759901629         0.679086324
     0.795393068         0.259901667         0.179086298
     0.795393066         0.259901645         0.679086324
     0.795393089         0.759901626         0.179086298
     0.795392985         0.759901629         0.679086324
     0.106041622         0.202144955         0.396076746
     0.106041638         0.202144951         0.896076718
     0.106041617         0.702144965         0.396076746
     0.106041621         0.702144986         0.896076718
     0.606041622         0.202144955         0.396076746
     0.606041638         0.202144951         0.896076718
     0.606041617         0.702144965         0.396076746
     0.606041621         0.702144986         0.896076718
     0.011290215         0.420745510         0.060462770
     0.011290205         0.420745518         0.560462783
     0.011290223         0.920745494         0.060462770
     0.011290187         0.920745553         0.560462783
     0.511290215         0.420745510         0.060462770
     0.511290205         0.420745518         0.560462783
     0.511290223         0.920745494         0.060462770
     0.511290187         0.920745553         0.560462783
     0.049625035         0.195869216         0.180621674
     0.049625020         0.195869219         0.680621700
     0.049625011         0.695869174         0.180621674
     0.049625041         0.695869177         0.680621700
     0.549624990         0.195869216         0.180621674
     0.549624976         0.195869219         0.680621700
     0.549625011         0.695869174         0.180621674
     0.549624996         0.695869177         0.680621700
     0.483689696         0.260321293         0.085981158
     0.483689702         0.260321317         0.585981123
     0.483689641         0.760321226         0.085981158
     0.483689646         0.760321249         0.585981123
     0.983689696         0.260321293         0.085981158
     0.983689702         0.260321317         0.585981123
     0.983689641         0.760321226         0.085981158
     0.983689646         0.760321249         0.585981123
     0.138730155         0.424042989         0.133665475
     0.138730144         0.424042964         0.633665433
     0.138730163         0.924042973         0.133665475
     0.138730152         0.924042948         0.633665433
     0.638730199         0.424042989         0.133665475
     0.638730144         0.424042964         0.633665433
     0.638730207         0.924042973         0.133665475
     0.638730152         0.924042948         0.633665433
     0.009849590         0.414108920         0.349310707
     0.009849584         0.414108932         0.849310706
     0.009849650         0.914108800         0.349310707
     0.009849663         0.914108864         0.849310706
     0.509849635         0.414108920         0.349310707
     0.509849629         0.414108932         0.849310706
     0.509849694         0.914108800         0.349310707
     0.509849663         0.914108864         0.849310706
     0.178546351         0.147574405         0.132592565
     0.178546361         0.147574414         0.632592537
     0.178546352         0.647574402         0.132592565
     0.178546356         0.647574423         0.632592537
     0.678546351         0.147574405         0.132592565
     0.678546361         0.147574414         0.632592537
     0.678546352         0.647574402         0.132592565
     0.678546356         0.647574423         0.632592537
     0.083191494         0.488311846         0.302588219
     0.083191489         0.488311858         0.802588218
     0.083191477         0.988311881         0.302588219
     0.083191452         0.988311842         0.802588218
     0.583191539         0.488311846         0.302588219
     0.583191533         0.488311858         0.802588218
     0.583191521         0.988311881         0.302588219
     0.583191541         0.988311842         0.802588218
     0.246592082         0.434494507         0.130617863
     0.246592086         0.434494528         0.630617834
     0.246592142         0.934494387         0.130617863
     0.246592120         0.934494460         0.630617834
     0.746592082         0.434494507         0.130617863
     0.746592086         0.434494528         0.630617834
     0.746592053         0.934494387         0.130617863
     0.746591941         0.934494460         0.630617834
     0.400323689         0.051670948         0.235328190
     0.400323689         0.051670948         0.735328189
     0.400323703         0.551670919         0.235328190
     0.400323698         0.551670932         0.735328189
     0.900323599         0.051670948         0.235328190
     0.900323600         0.051670948         0.735328189
     0.900323614         0.551670919         0.235328190
     0.900323608         0.551670932         0.735328189
     0.008067057         0.497691307         0.442671996
     0.008067106         0.497691328         0.942671968
     0.008067059         0.997691394         0.442671996
     0.008067088         0.997691363         0.942671968
     0.508067102         0.497691307         0.442671996
     0.508067195         0.497691328         0.942671968
     0.508067059         0.997691394         0.442671996
     0.508067177         0.997691363         0.942671968
     0.391387023         0.091091518         0.469977758
     0.391387049         0.091091522         0.969977702
     0.391387044         0.591091476         0.469977758
     0.391387083         0.591091454         0.969977702
     0.891387023         0.091091518         0.469977758
     0.891387049         0.091091522         0.969977702
     0.891387044         0.591091476         0.469977758
     0.891387083         0.591091454         0.969977702
     0.036032604         0.126971230         0.342895941
     0.036032581         0.126971224         0.842895994
     0.036032600         0.626971240         0.342895941
     0.036032621         0.626971234         0.842895994
     0.536032560         0.126971230         0.342895941
     0.536032536         0.126971224         0.842895994
     0.536032555         0.626971240         0.342895941
     0.536032531         0.626971234         0.842895994
     0.222169250         0.024320229         0.209035309
     0.222169244         0.024320225         0.709035280
     0.222169222         0.524320239         0.209035309
     0.222169226         0.524320260         0.709035280
     0.722169316         0.024320229         0.209035309
     0.722169333         0.024320225         0.709035280
     0.722169312         0.524320239         0.209035309
     0.722169315         0.524320260         0.709035280
     0.352763170         0.340131185         0.399180728
     0.352763191         0.340131179         0.899180781
     0.352763160         0.840131117         0.399180728
     0.352763199         0.840131163         0.899180781
     0.852763126         0.340131185         0.399180728
     0.852763191         0.340131179         0.899180781
     0.852763160         0.840131117         0.399180728
     0.852763110         0.840131163         0.899180781
     0.111856265         0.202773716         0.003852248
     0.111856269         0.202773699         0.503852256
     0.111856241         0.702773674         0.003852248
     0.111856258         0.702773631         0.503852256
     0.611856265         0.202773716         0.003852248
     0.611856313         0.202773699         0.503852256
     0.611856241         0.702773674         0.003852248
     0.611856258         0.702773631         0.503852256
     0.148184094         0.288563283         0.100987848
     0.148184124         0.288563269         0.600987847
     0.148184138         0.788563241         0.100987848
     0.148184158         0.788563201         0.600987847
     0.648184117         0.288563283         0.100987848
     0.648184124         0.288563269         0.600987847
     0.648184138         0.788563241         0.100987848
     0.648184158         0.788563201         0.600987847
     0.139122463         0.022575654         0.382246728
     0.139122477         0.022575644         0.882246754
     0.139122487         0.522575650         0.382246728
     0.139122472         0.522575653         0.882246754
     0.639122485         0.022575654         0.382246728
     0.639122477         0.022575644         0.882246754
     0.639122576         0.522575650         0.382246728
     0.639122561         0.522575653         0.882246754
     0.465603889         0.454546879         0.171462496
     0.465603893         0.454546900         0.671462468
     0.465603871         0.954546914         0.171462496
     0.465603901         0.954546884         0.671462468
     0.965603889         0.454546879         0.171462496
     0.965603893         0.454546900         0.671462468
     0.965603871         0.954546914         0.171462496
     0.965603901         0.954546884         0.671462468
     0.317094102         0.148462662         0.161379545
     0.317094134         0.148462648         0.661379585
     0.317094117         0.648462633         0.161379545
     0.317094098         0.648462632         0.661379585
     0.817094013         0.148462662         0.161379545
     0.817094001         0.148462648         0.661379585
     0.817094028         0.648462633         0.161379545
     0.817094009         0.648462632         0.661379585
     0.179384574         0.053052863         0.046593438
     0.179384546         0.053052865         0.546593447
     0.179384563         0.553052840         0.046593438
     0.179384580         0.553052797         0.546593447
     0.679384552         0.053052863         0.046593438
     0.679384591         0.053052865         0.546593447
     0.679384608         0.553052840         0.046593438
     0.679384625         0.553052797         0.546593447
     0.435521928         0.327065035         0.213080852
     0.435521905         0.327065029         0.713080906
     0.435521911         0.827065070         0.213080852
     0.435521913         0.827065013         0.713080906
     0.935521928         0.327065035         0.213080852
     0.935521905         0.327065029         0.713080906
     0.935521911         0.827065070         0.213080852
     0.935521913         0.827065013         0.713080906
     0.339215041         0.163194456         0.278024575
     0.339215057         0.163194451         0.778024546
     0.339215036         0.663194466         0.278024575
     0.339215039         0.663194487         0.778024546
     0.839215041         0.163194456         0.278024575
     0.839214968         0.163194451         0.778024546
     0.839215036         0.663194466         0.278024575
     0.839214950         0.663194487         0.778024546
     0.279852611         0.008719497         0.306450169
     0.279852621         0.008719505         0.806450140
     0.279852638         0.508719442         0.306450169
     0.279852597         0.508719463         0.806450140
     0.779852744         0.008719497         0.306450169
     0.779852665         0.008719505         0.806450140
     0.779852772         0.508719442         0.306450169
     0.779852686         0.508719463         0.806450140
     0.029798120         0.050964796         0.167049955
     0.029798126         0.050964792         0.667049927
     0.029798117         0.550964780         0.167049955
     0.029798147         0.550964750         0.667049927
     0.529798109         0.050964796         0.167049955
     0.529798081         0.050964792         0.667049927
     0.529798073         0.550964780         0.167049955
     0.529798102         0.550964750         0.667049927
     0.384483554         0.088443512         0.080208875
     0.384483590         0.088443522         0.580208881
     0.384483575         0.588443471         0.080208875
     0.384483611         0.588443480         0.580208881
     0.884483598         0.088443512         0.080208875
     0.884483590         0.088443522         0.580208881
     0.884483619         0.588443471         0.080208875
     0.884483611         0.588443480         0.580208881
     0.480183098         0.165582462         0.071961245
     0.480183110         0.165582453         0.571961231
     0.480183081         0.665582498         0.071961245
     0.480183105         0.665582463         0.571961231
     0.980183187         0.165582462         0.071961245
     0.980183199         0.165582453         0.571961231
     0.980183170         0.665582498         0.071961245
     0.980183195         0.665582463         0.571961231
     0.189643459         0.140307530         0.246077079
     0.189643453         0.140307543         0.746077078
     0.189643467         0.640307514         0.246077079
     0.189643461         0.640307526         0.746077078
     0.689643370         0.140307530         0.246077079
     0.689643364         0.140307543         0.746077078
     0.689643378         0.640307514         0.246077079
     0.689643372         0.640307526         0.746077078
     0.403993045         0.459709452         0.456551817
     0.403993092         0.459709440         0.956551734
     0.403993079         0.959709384         0.456551817
     0.403993037         0.959709372         0.956551734
     0.903993045         0.459709452         0.456551817
     0.903993003         0.459709440         0.956551734
     0.903992990         0.959709384         0.456551817
     0.903993037         0.959709372         0.956551734
     0.150104055         0.391702666         0.432516183
     0.150104049         0.391702678         0.932516182
     0.150104037         0.891702701         0.432516183
     0.150104057         0.891702661         0.932516182
     0.650104144         0.391702666         0.432516183
     0.650104138         0.391702678         0.932516182
     0.650104037         0.891702701         0.432516183
     0.650104057         0.891702661         0.932516182
     0.235226394         0.361081440         0.487305349
     0.235226388         0.361081452         0.987305348
     0.235226427         0.861081373         0.487305349
     0.235226396         0.861081436         0.987305348
     0.735226394         0.361081440         0.487305349
     0.735226388         0.361081452         0.987305348
     0.735226427         0.861081373         0.487305349
     0.735226396         0.861081436         0.987305348
     0.144327648         0.296381276         0.211971055
     0.144327602         0.296381293         0.711971040
     0.144327630         0.796381311         0.211971055
     0.144327655         0.796381277         0.711971040
     0.644327648         0.296381276         0.211971055
     0.644327647         0.296381293         0.711971040
     0.644327630         0.796381311         0.211971055
     0.644327655         0.796381277         0.711971040
     0.205837161         0.109947196         0.353629868
     0.205837187         0.109947201         0.853629812
     0.205837201         0.609947206         0.353629868
     0.205837214         0.609947236         0.853629812
     0.705837206         0.109947196         0.353629868
     0.705837231         0.109947201         0.853629812
     0.705837201         0.609947206         0.353629868
     0.705837214         0.609947236         0.853629812
     0.105224728         0.322882676         0.413793205
     0.105224714         0.322882679         0.913793231
     0.105224736         0.822882660         0.413793205
     0.105224696         0.822882714         0.913793231
     0.605224728         0.322882676         0.413793205
     0.605224714         0.322882679         0.913793231
     0.605224736         0.822882660         0.413793205
     0.605224696         0.822882714         0.913793231
     0.339231414         0.360272763         0.054652668
     0.339231443         0.360272765         0.554652698
     0.339231403         0.860272696         0.054652668
     0.339231362         0.860272749         0.554652698
     0.839231369         0.360272763         0.054652668
     0.839231354         0.360272765         0.554652698
     0.839231403         0.860272696         0.054652668
     0.839231362         0.860272749         0.554652698
     0.317206521         0.082548500         0.401850926
     0.317206528         0.082548486         0.901850925
     0.317206516         0.582548509         0.401850926
     0.317206536         0.582548470         0.901850925
     0.817206521         0.082548500         0.401850926
     0.817206528         0.082548486         0.901850925
     0.817206516         0.582548509         0.401850926
     0.817206536         0.582548470         0.901850925
     0.198289653         0.268204425         0.303227495
     0.198289669         0.268204420         0.803227467
     0.198289674         0.768204383         0.303227495
     0.198289696         0.768204456         0.803227467
     0.698289697         0.268204425         0.303227495
     0.698289714         0.268204420         0.803227467
     0.698289718         0.768204383         0.303227495
     0.698289696         0.768204456         0.803227467
     0.334320611         0.392433334         0.284061723
     0.334320552         0.392433337         0.784061749
     0.334320574         0.892433318         0.284061723
     0.334320534         0.892433372         0.784061749
     0.834320566         0.392433334         0.284061723
     0.834320552         0.392433337         0.784061749
     0.834320574         0.892433318         0.284061723
     0.834320623         0.892433372         0.784061749
