SYSTEM=Butanethiol on Ag 100 surface, 3-layer slab
ISTART=0
ICHARG=2
LMAXPAW=1
NWRITE=3
GGA=PE
ENCUT=400.0
PREC=MEDIUM
NELMIN=4
EDIFF=1E-6
LREAL=A
ISMEAR = 1  ;  SIGMA=0.1
LSCALAPACK = .FALSE.

POTIM=0.4
NCORE=1
LPLANE=.TRUE.
ALGO=Fast
NBLOCK=1
KBLOCK=1

LWAVE=.TRUE.
LCHARG=.TRUE.
