Benchmark 2 Gamma-point only
0
Gamma
1 1 1