Three-layer Ag with butanethiol         
   1.00000000000000     
    22.6260000000000012    0.0000000000000000    0.0000000000000000
     0.0000000000000000   22.6260000000000012    0.0000000000000000
     0.0000000000000000    0.0000000000000000   50.0000000000000000
   Ag   C    H    S 
 504   4  10   1
Selective dynamics
Direct
  0.9615289999999987  0.0425529999999981  0.5751419999999996   T   T   T
  0.8781940000000006  0.0425529999999981  0.6159949999999981   T   T   T
  0.7948599999999999  0.0425529999999981  0.5751419999999996   T   T   T
  0.7115250000000017  0.0425529999999981  0.6159949999999981   T   T   T
  0.6281910000000011  0.0425529999999981  0.5751419999999996   T   T   T
  0.5448560000000029  0.0425529999999981  0.6159949999999981   T   T   T
  0.4615220000000022  0.0425529999999981  0.5751419999999996   T   T   T
  0.3781869999999969  0.0425529999999981  0.6159949999999981   T   T   T
  0.2948530000000034  0.0425529999999981  0.5751419999999996   T   T   T
  0.2115179999999981  0.0425529999999981  0.6159949999999981   T   T   T
  0.1281839999999974  0.0425520000000006  0.5751419999999996   T   T   T
  0.0448489999999993  0.0425520000000006  0.6159949999999981   T   T   T
  0.9615289999999987  0.1258869999999987  0.6159949999999981   T   T   T
  0.9615289999999987  0.2092219999999969  0.5751419999999996   T   T   T
  0.8781940000000006  0.2092219999999969  0.6159949999999981   T   T   T
  0.8781940000000006  0.1258869999999987  0.5751419999999996   T   T   T
  0.7948599999999999  0.1258869999999987  0.6159949999999981   T   T   T
  0.7948599999999999  0.2092219999999969  0.5751419999999996   T   T   T
  0.7115250000000017  0.2092219999999969  0.6159949999999981   T   T   T
  0.7115250000000017  0.1258869999999987  0.5751419999999996   T   T   T
  0.6281910000000011  0.1258869999999987  0.6159949999999981   T   T   T
  0.6281910000000011  0.2092209999999994  0.5751419999999996   T   T   T
  0.5448560000000029  0.2092209999999994  0.6159949999999981   T   T   T
  0.5448560000000029  0.1258869999999987  0.5751419999999996   T   T   T
  0.4615220000000022  0.1258869999999987  0.6159949999999981   T   T   T
  0.4615220000000022  0.2092209999999994  0.5751419999999996   T   T   T
  0.3781869999999969  0.2092209999999994  0.6159949999999981   T   T   T
  0.3781869999999969  0.1258869999999987  0.5751419999999996   T   T   T
  0.2948530000000034  0.1258869999999987  0.6159949999999981   T   T   T
  0.2948530000000034  0.2092209999999994  0.5751419999999996   T   T   T
  0.2115179999999981  0.2092209999999994  0.6159949999999981   T   T   T
  0.2115179999999981  0.1258869999999987  0.5751419999999996   T   T   T
  0.1281839999999974  0.1258869999999987  0.6159949999999981   T   T   T
  0.1281839999999974  0.2092209999999994  0.5751419999999996   T   T   T
  0.0448489999999993  0.2092209999999994  0.6159949999999981   T   T   T
  0.0448489999999993  0.1258869999999987  0.5751419999999996   T   T   T
  0.9615289999999987  0.2925559999999976  0.6159949999999981   T   T   T
  0.9615289999999987  0.3758910000000029  0.5751419999999996   T   T   T
  0.8781940000000006  0.3758910000000029  0.6159949999999981   T   T   T
  0.8781940000000006  0.2925559999999976  0.5751419999999996   T   T   T
  0.7948599999999999  0.2925559999999976  0.6159949999999981   T   T   T
  0.7948599999999999  0.3758910000000029  0.5751419999999996   T   T   T
  0.7115250000000017  0.3758910000000029  0.6159949999999981   T   T   T
  0.7115250000000017  0.2925559999999976  0.5751419999999996   T   T   T
  0.6281910000000011  0.2925559999999976  0.6159949999999981   T   T   T
  0.6281910000000011  0.3758910000000029  0.5751419999999996   T   T   T
  0.5448560000000029  0.3758910000000029  0.6159949999999981   T   T   T
  0.5448560000000029  0.2925559999999976  0.5751419999999996   T   T   T
  0.4615220000000022  0.2925559999999976  0.6159949999999981   T   T   T
  0.4615220000000022  0.3758910000000029  0.5751419999999996   T   T   T
  0.3781869999999969  0.3758910000000029  0.6159949999999981   T   T   T
  0.3781869999999969  0.2925559999999976  0.5751419999999996   T   T   T
  0.2948530000000034  0.2925559999999976  0.6159949999999981   T   T   T
  0.2948530000000034  0.3758910000000029  0.5751419999999996   T   T   T
  0.2115179999999981  0.3758910000000029  0.6159949999999981   T   T   T
  0.2115179999999981  0.2925559999999976  0.5751419999999996   T   T   T
  0.1281839999999974  0.2925559999999976  0.6159949999999981   T   T   T
  0.1281839999999974  0.3758910000000029  0.5751419999999996   T   T   T
  0.0448489999999993  0.3758910000000029  0.6159949999999981   T   T   T
  0.0448489999999993  0.2925559999999976  0.5751419999999996   T   T   T
  0.9615289999999987  0.4592250000000035  0.6159949999999981   T   T   T
  0.9615289999999987  0.5425600000000017  0.5751419999999996   T   T   T
  0.8781940000000006  0.5425600000000017  0.6159949999999981   T   T   T
  0.8781940000000006  0.4592250000000035  0.5751419999999996   T   T   T
  0.7948599999999999  0.4592250000000035  0.6159949999999981   T   T   T
  0.7948599999999999  0.5425600000000017  0.5751419999999996   T   T   T
  0.7115250000000017  0.5425600000000017  0.6159949999999981   T   T   T
  0.7115250000000017  0.4592250000000035  0.5751419999999996   T   T   T
  0.6281910000000011  0.4592250000000035  0.6159949999999981   T   T   T
  0.6281910000000011  0.5425600000000017  0.5751419999999996   T   T   T
  0.5448560000000029  0.5425600000000017  0.6159949999999981   T   T   T
  0.5448560000000029  0.4592250000000035  0.5751419999999996   T   T   T
  0.4615220000000022  0.4592250000000035  0.6159949999999981   T   T   T
  0.4615220000000022  0.5425600000000017  0.5751419999999996   T   T   T
  0.3781869999999969  0.5425600000000017  0.6159949999999981   T   T   T
  0.3781869999999969  0.4592250000000035  0.5751419999999996   T   T   T
  0.2948530000000034  0.4592250000000035  0.6159949999999981   T   T   T
  0.2948530000000034  0.5425600000000017  0.5751419999999996   T   T   T
  0.2115179999999981  0.5425589999999971  0.6159949999999981   T   T   T
  0.2115179999999981  0.4592250000000035  0.5751419999999996   T   T   T
  0.1281839999999974  0.4592250000000035  0.6159949999999981   T   T   T
  0.1281839999999974  0.5425589999999971  0.5751419999999996   T   T   T
  0.0448489999999993  0.5425589999999971  0.6159949999999981   T   T   T
  0.0448489999999993  0.4592250000000035  0.5751419999999996   T   T   T
  0.9615289999999987  0.6258940000000024  0.6159949999999981   T   T   T
  0.9615289999999987  0.7092280000000031  0.5751419999999996   T   T   T
  0.8781940000000006  0.7092280000000031  0.6159949999999981   T   T   T
  0.8781940000000006  0.6258940000000024  0.5751419999999996   T   T   T
  0.7948599999999999  0.6258940000000024  0.6159949999999981   T   T   T
  0.7948599999999999  0.7092280000000031  0.5751419999999996   T   T   T
  0.7115250000000017  0.7092280000000031  0.6159949999999981   T   T   T
  0.7115250000000017  0.6258940000000024  0.5751419999999996   T   T   T
  0.6281910000000011  0.6258940000000024  0.6159949999999981   T   T   T
  0.6281910000000011  0.7092280000000031  0.5751419999999996   T   T   T
  0.5448560000000029  0.7092280000000031  0.6159949999999981   T   T   T
  0.5448560000000029  0.6258940000000024  0.5751419999999996   T   T   T
  0.4615220000000022  0.6258940000000024  0.6159949999999981   T   T   T
  0.4615220000000022  0.7092280000000031  0.5751419999999996   T   T   T
  0.3781869999999969  0.7092280000000031  0.6159949999999981   T   T   T
  0.3781869999999969  0.6258940000000024  0.5751419999999996   T   T   T
  0.2948530000000034  0.6258940000000024  0.6159949999999981   T   T   T
  0.2948530000000034  0.7092280000000031  0.5751419999999996   T   T   T
  0.2115179999999981  0.7092280000000031  0.6159949999999981   T   T   T
  0.2115179999999981  0.6258940000000024  0.5751419999999996   T   T   T
  0.1281839999999974  0.6258940000000024  0.6159949999999981   T   T   T
  0.1281839999999974  0.7092280000000031  0.5751419999999996   T   T   T
  0.0448489999999993  0.7092280000000031  0.6159949999999981   T   T   T
  0.0448489999999993  0.6258940000000024  0.5751419999999996   T   T   T
  0.9615289999999987  0.7925630000000012  0.6159949999999981   T   T   T
  0.9615289999999987  0.8758979999999994  0.5751419999999996   T   T   T
  0.8781940000000006  0.8758979999999994  0.6159949999999981   T   T   T
  0.8781940000000006  0.7925630000000012  0.5751419999999996   T   T   T
  0.7948599999999999  0.7925630000000012  0.6159949999999981   T   T   T
  0.7948599999999999  0.8758979999999994  0.5751419999999996   T   T   T
  0.7115250000000017  0.8758979999999994  0.6159949999999981   T   T   T
  0.7115250000000017  0.7925630000000012  0.5751419999999996   T   T   T
  0.6281910000000011  0.7925630000000012  0.6159949999999981   T   T   T
  0.6281910000000011  0.8758979999999994  0.5751419999999996   T   T   T
  0.5448560000000029  0.8758979999999994  0.6159949999999981   T   T   T
  0.5448560000000029  0.7925630000000012  0.5751419999999996   T   T   T
  0.4615220000000022  0.7925630000000012  0.6159949999999981   T   T   T
  0.4615220000000022  0.8758979999999994  0.5751419999999996   T   T   T
  0.3781869999999969  0.8758979999999994  0.6159949999999981   T   T   T
  0.3781869999999969  0.7925630000000012  0.5751419999999996   T   T   T
  0.2948530000000034  0.7925630000000012  0.6159949999999981   T   T   T
  0.2948530000000034  0.8758979999999994  0.5751419999999996   T   T   T
  0.2115179999999981  0.8758979999999994  0.6159949999999981   T   T   T
  0.2115179999999981  0.7925630000000012  0.5751419999999996   T   T   T
  0.1281839999999974  0.7925630000000012  0.6159949999999981   T   T   T
  0.1281839999999974  0.8758979999999994  0.5751419999999996   T   T   T
  0.0448489999999993  0.8758979999999994  0.6159949999999981   T   T   T
  0.0448489999999993  0.7925630000000012  0.5751419999999996   T   T   T
  0.9615289999999987  0.9592320000000001  0.6159949999999981   T   T   T
  0.8781940000000006  0.9592320000000001  0.5751419999999996   T   T   T
  0.7948599999999999  0.9592320000000001  0.6159949999999981   T   T   T
  0.7115250000000017  0.9592320000000001  0.5751419999999996   T   T   T
  0.6281910000000011  0.9592320000000001  0.6159949999999981   T   T   T
  0.5448560000000029  0.9592320000000001  0.5751419999999996   T   T   T
  0.4615220000000022  0.9592320000000001  0.6159949999999981   T   T   T
  0.3781869999999969  0.9592320000000001  0.5751419999999996   T   T   T
  0.2948530000000034  0.9592320000000001  0.6159949999999981   T   T   T
  0.2115179999999981  0.9592320000000001  0.5751419999999996   T   T   T
  0.1281839999999974  0.9592320000000001  0.6159949999999981   T   T   T
  0.0448489999999993  0.9592320000000001  0.5751419999999996   T   T   T
  0.9615289999999987  0.0425529999999981  0.4934370000000001   T   T   T
  0.8781940000000006  0.0425529999999981  0.5342890000000011   T   T   T
  0.7948599999999999  0.0425529999999981  0.4934370000000001   T   T   T
  0.7115250000000017  0.0425529999999981  0.5342890000000011   T   T   T
  0.6281910000000011  0.0425529999999981  0.4934370000000001   T   T   T
  0.5448560000000029  0.0425529999999981  0.5342890000000011   T   T   T
  0.4615220000000022  0.0425529999999981  0.4934370000000001   T   T   T
  0.3781869999999969  0.0425529999999981  0.5342890000000011   T   T   T
  0.2948530000000034  0.0425529999999981  0.4934370000000001   T   T   T
  0.2115179999999981  0.0425529999999981  0.5342890000000011   T   T   T
  0.1281839999999974  0.0425520000000006  0.4934370000000001   T   T   T
  0.0448489999999993  0.0425520000000006  0.5342890000000011   T   T   T
  0.9615289999999987  0.1258869999999987  0.5342890000000011   T   T   T
  0.9615289999999987  0.2092219999999969  0.4934370000000001   T   T   T
  0.8781940000000006  0.2092219999999969  0.5342890000000011   T   T   T
  0.8781940000000006  0.1258869999999987  0.4934370000000001   T   T   T
  0.7948599999999999  0.1258869999999987  0.5342890000000011   T   T   T
  0.7948599999999999  0.2092219999999969  0.4934370000000001   T   T   T
  0.7115250000000017  0.2092219999999969  0.5342890000000011   T   T   T
  0.7115250000000017  0.1258869999999987  0.4934370000000001   T   T   T
  0.6281910000000011  0.1258869999999987  0.5342890000000011   T   T   T
  0.6281910000000011  0.2092209999999994  0.4934370000000001   T   T   T
  0.5448560000000029  0.2092209999999994  0.5342890000000011   T   T   T
  0.5448560000000029  0.1258869999999987  0.4934370000000001   T   T   T
  0.4615220000000022  0.1258869999999987  0.5342890000000011   T   T   T
  0.4615220000000022  0.2092209999999994  0.4934370000000001   T   T   T
  0.3781869999999969  0.2092209999999994  0.5342890000000011   T   T   T
  0.3781869999999969  0.1258869999999987  0.4934370000000001   T   T   T
  0.2948530000000034  0.1258869999999987  0.5342890000000011   T   T   T
  0.2948530000000034  0.2092209999999994  0.4934370000000001   T   T   T
  0.2115179999999981  0.2092209999999994  0.5342890000000011   T   T   T
  0.2115179999999981  0.1258869999999987  0.4934370000000001   T   T   T
  0.1281839999999974  0.1258869999999987  0.5342890000000011   T   T   T
  0.1281839999999974  0.2092209999999994  0.4934370000000001   T   T   T
  0.0448489999999993  0.2092209999999994  0.5342890000000011   T   T   T
  0.0448489999999993  0.1258869999999987  0.4934370000000001   T   T   T
  0.9615289999999987  0.2925559999999976  0.5342890000000011   T   T   T
  0.9615289999999987  0.3758910000000029  0.4934370000000001   T   T   T
  0.8781940000000006  0.3758910000000029  0.5342890000000011   T   T   T
  0.8781940000000006  0.2925559999999976  0.4934370000000001   T   T   T
  0.7948599999999999  0.2925559999999976  0.5342890000000011   T   T   T
  0.7948599999999999  0.3758910000000029  0.4934370000000001   T   T   T
  0.7115250000000017  0.3758910000000029  0.5342890000000011   T   T   T
  0.7115250000000017  0.2925559999999976  0.4934370000000001   T   T   T
  0.6281910000000011  0.2925559999999976  0.5342890000000011   T   T   T
  0.6281910000000011  0.3758910000000029  0.4934370000000001   T   T   T
  0.5448560000000029  0.3758910000000029  0.5342890000000011   T   T   T
  0.5448560000000029  0.2925559999999976  0.4934370000000001   T   T   T
  0.4615220000000022  0.2925559999999976  0.5342890000000011   T   T   T
  0.4615220000000022  0.3758910000000029  0.4934370000000001   T   T   T
  0.3781869999999969  0.3758910000000029  0.5342890000000011   T   T   T
  0.3781869999999969  0.2925559999999976  0.4934370000000001   T   T   T
  0.2948530000000034  0.2925559999999976  0.5342890000000011   T   T   T
  0.2948530000000034  0.3758910000000029  0.4934370000000001   T   T   T
  0.2115179999999981  0.3758910000000029  0.5342890000000011   T   T   T
  0.2115179999999981  0.2925559999999976  0.4934370000000001   T   T   T
  0.1281839999999974  0.2925559999999976  0.5342890000000011   T   T   T
  0.1281839999999974  0.3758910000000029  0.4934370000000001   T   T   T
  0.0448489999999993  0.3758910000000029  0.5342890000000011   T   T   T
  0.0448489999999993  0.2925559999999976  0.4934370000000001   T   T   T
  0.9615289999999987  0.4592250000000035  0.5342890000000011   T   T   T
  0.9615289999999987  0.5425600000000017  0.4934370000000001   T   T   T
  0.8781940000000006  0.5425600000000017  0.5342890000000011   T   T   T
  0.8781940000000006  0.4592250000000035  0.4934370000000001   T   T   T
  0.7948599999999999  0.4592250000000035  0.5342890000000011   T   T   T
  0.7948599999999999  0.5425600000000017  0.4934370000000001   T   T   T
  0.7115250000000017  0.5425600000000017  0.5342890000000011   T   T   T
  0.7115250000000017  0.4592250000000035  0.4934370000000001   T   T   T
  0.6281910000000011  0.4592250000000035  0.5342890000000011   T   T   T
  0.6281910000000011  0.5425600000000017  0.4934370000000001   T   T   T
  0.5448560000000029  0.5425600000000017  0.5342890000000011   T   T   T
  0.5448560000000029  0.4592250000000035  0.4934370000000001   T   T   T
  0.4615220000000022  0.4592250000000035  0.5342890000000011   T   T   T
  0.4615220000000022  0.5425600000000017  0.4934370000000001   T   T   T
  0.3781869999999969  0.5425600000000017  0.5342890000000011   T   T   T
  0.3781869999999969  0.4592250000000035  0.4934370000000001   T   T   T
  0.2948530000000034  0.4592250000000035  0.5342890000000011   T   T   T
  0.2948530000000034  0.5425600000000017  0.4934370000000001   T   T   T
  0.2115179999999981  0.5425589999999971  0.5342890000000011   T   T   T
  0.2115179999999981  0.4592250000000035  0.4934370000000001   T   T   T
  0.1281839999999974  0.4592250000000035  0.5342890000000011   T   T   T
  0.1281839999999974  0.5425589999999971  0.4934370000000001   T   T   T
  0.0448489999999993  0.5425589999999971  0.5342890000000011   T   T   T
  0.0448489999999993  0.4592250000000035  0.4934370000000001   T   T   T
  0.9615289999999987  0.6258940000000024  0.5342890000000011   T   T   T
  0.9615289999999987  0.7092280000000031  0.4934370000000001   T   T   T
  0.8781940000000006  0.7092280000000031  0.5342890000000011   T   T   T
  0.8781940000000006  0.6258940000000024  0.4934370000000001   T   T   T
  0.7948599999999999  0.6258940000000024  0.5342890000000011   T   T   T
  0.7948599999999999  0.7092280000000031  0.4934370000000001   T   T   T
  0.7115250000000017  0.7092280000000031  0.5342890000000011   T   T   T
  0.7115250000000017  0.6258940000000024  0.4934370000000001   T   T   T
  0.6281910000000011  0.6258940000000024  0.5342890000000011   T   T   T
  0.6281910000000011  0.7092280000000031  0.4934370000000001   T   T   T
  0.5448560000000029  0.7092280000000031  0.5342890000000011   T   T   T
  0.5448560000000029  0.6258940000000024  0.4934370000000001   T   T   T
  0.4615220000000022  0.6258940000000024  0.5342890000000011   T   T   T
  0.4615220000000022  0.7092280000000031  0.4934370000000001   T   T   T
  0.3781869999999969  0.7092280000000031  0.5342890000000011   T   T   T
  0.3781869999999969  0.6258940000000024  0.4934370000000001   T   T   T
  0.2948530000000034  0.6258940000000024  0.5342890000000011   T   T   T
  0.2948530000000034  0.7092280000000031  0.4934370000000001   T   T   T
  0.2115179999999981  0.7092280000000031  0.5342890000000011   T   T   T
  0.2115179999999981  0.6258940000000024  0.4934370000000001   T   T   T
  0.1281839999999974  0.6258940000000024  0.5342890000000011   T   T   T
  0.1281839999999974  0.7092280000000031  0.4934370000000001   T   T   T
  0.0448489999999993  0.7092280000000031  0.5342890000000011   T   T   T
  0.0448489999999993  0.6258940000000024  0.4934370000000001   T   T   T
  0.9615289999999987  0.7925630000000012  0.5342890000000011   T   T   T
  0.9615289999999987  0.8758979999999994  0.4934370000000001   T   T   T
  0.8781940000000006  0.8758979999999994  0.5342890000000011   T   T   T
  0.8781940000000006  0.7925630000000012  0.4934370000000001   T   T   T
  0.7948599999999999  0.7925630000000012  0.5342890000000011   T   T   T
  0.7948599999999999  0.8758979999999994  0.4934370000000001   T   T   T
  0.7115250000000017  0.8758979999999994  0.5342890000000011   T   T   T
  0.7115250000000017  0.7925630000000012  0.4934370000000001   T   T   T
  0.6281910000000011  0.7925630000000012  0.5342890000000011   T   T   T
  0.6281910000000011  0.8758979999999994  0.4934370000000001   T   T   T
  0.5448560000000029  0.8758979999999994  0.5342890000000011   T   T   T
  0.5448560000000029  0.7925630000000012  0.4934370000000001   T   T   T
  0.4615220000000022  0.7925630000000012  0.5342890000000011   T   T   T
  0.4615220000000022  0.8758979999999994  0.4934370000000001   T   T   T
  0.3781869999999969  0.8758979999999994  0.5342890000000011   T   T   T
  0.3781869999999969  0.7925630000000012  0.4934370000000001   T   T   T
  0.2948530000000034  0.7925630000000012  0.5342890000000011   T   T   T
  0.2948530000000034  0.8758979999999994  0.4934370000000001   T   T   T
  0.2115179999999981  0.8758979999999994  0.5342890000000011   T   T   T
  0.2115179999999981  0.7925630000000012  0.4934370000000001   T   T   T
  0.1281839999999974  0.7925630000000012  0.5342890000000011   T   T   T
  0.1281839999999974  0.8758979999999994  0.4934370000000001   T   T   T
  0.0448489999999993  0.8758979999999994  0.5342890000000011   T   T   T
  0.0448489999999993  0.7925630000000012  0.4934370000000001   T   T   T
  0.9615289999999987  0.9592320000000001  0.5342890000000011   T   T   T
  0.8781940000000006  0.9592320000000001  0.4934370000000001   T   T   T
  0.7948599999999999  0.9592320000000001  0.5342890000000011   T   T   T
  0.7115250000000017  0.9592320000000001  0.4934370000000001   T   T   T
  0.6281910000000011  0.9592320000000001  0.5342890000000011   T   T   T
  0.5448560000000029  0.9592320000000001  0.4934370000000001   T   T   T
  0.4615220000000022  0.9592320000000001  0.5342890000000011   T   T   T
  0.3781869999999969  0.9592320000000001  0.4934370000000001   T   T   T
  0.2948530000000034  0.9592320000000001  0.5342890000000011   T   T   T
  0.2115179999999981  0.9592320000000001  0.4934370000000001   T   T   T
  0.1281839999999974  0.9592320000000001  0.5342890000000011   T   T   T
  0.0448489999999993  0.9592320000000001  0.4934370000000001   T   T   T
  0.9615289999999987  0.0425529999999981  0.4117320000000007   T   T   T
  0.8781940000000006  0.0425529999999981  0.4525840000000017   T   T   T
  0.7948599999999999  0.0425529999999981  0.4117320000000007   T   T   T
  0.7115250000000017  0.0425529999999981  0.4525840000000017   T   T   T
  0.6281910000000011  0.0425529999999981  0.4117320000000007   T   T   T
  0.5448560000000029  0.0425529999999981  0.4525840000000017   T   T   T
  0.4615220000000022  0.0425529999999981  0.4117320000000007   T   T   T
  0.3781869999999969  0.0425529999999981  0.4525840000000017   T   T   T
  0.2948530000000034  0.0425529999999981  0.4117320000000007   T   T   T
  0.2115179999999981  0.0425529999999981  0.4525840000000017   T   T   T
  0.1281839999999974  0.0425520000000006  0.4117320000000007   T   T   T
  0.0448489999999993  0.0425520000000006  0.4525840000000017   T   T   T
  0.9615289999999987  0.1258869999999987  0.4525840000000017   T   T   T
  0.9615289999999987  0.2092219999999969  0.4117320000000007   T   T   T
  0.8781940000000006  0.2092219999999969  0.4525840000000017   T   T   T
  0.8781940000000006  0.1258869999999987  0.4117320000000007   T   T   T
  0.7948599999999999  0.1258869999999987  0.4525840000000017   T   T   T
  0.7948599999999999  0.2092219999999969  0.4117320000000007   T   T   T
  0.7115250000000017  0.2092219999999969  0.4525840000000017   T   T   T
  0.7115250000000017  0.1258869999999987  0.4117320000000007   T   T   T
  0.6281910000000011  0.1258869999999987  0.4525840000000017   T   T   T
  0.6281910000000011  0.2092209999999994  0.4117320000000007   T   T   T
  0.5448560000000029  0.2092209999999994  0.4525840000000017   T   T   T
  0.5448560000000029  0.1258869999999987  0.4117320000000007   T   T   T
  0.4615220000000022  0.1258869999999987  0.4525840000000017   T   T   T
  0.4615220000000022  0.2092209999999994  0.4117320000000007   T   T   T
  0.3781869999999969  0.2092209999999994  0.4525840000000017   T   T   T
  0.3781869999999969  0.1258869999999987  0.4117320000000007   T   T   T
  0.2948530000000034  0.1258869999999987  0.4525840000000017   T   T   T
  0.2948530000000034  0.2092209999999994  0.4117320000000007   T   T   T
  0.2115179999999981  0.2092209999999994  0.4525840000000017   T   T   T
  0.2115179999999981  0.1258869999999987  0.4117320000000007   T   T   T
  0.1281839999999974  0.1258869999999987  0.4525840000000017   T   T   T
  0.1281839999999974  0.2092209999999994  0.4117320000000007   T   T   T
  0.0448489999999993  0.2092209999999994  0.4525840000000017   T   T   T
  0.0448489999999993  0.1258869999999987  0.4117320000000007   T   T   T
  0.9615289999999987  0.2925559999999976  0.4525840000000017   T   T   T
  0.9615289999999987  0.3758910000000029  0.4117320000000007   T   T   T
  0.8781940000000006  0.3758910000000029  0.4525840000000017   T   T   T
  0.8781940000000006  0.2925559999999976  0.4117320000000007   T   T   T
  0.7948599999999999  0.2925559999999976  0.4525840000000017   T   T   T
  0.7948599999999999  0.3758910000000029  0.4117320000000007   T   T   T
  0.7115250000000017  0.3758910000000029  0.4525840000000017   T   T   T
  0.7115250000000017  0.2925559999999976  0.4117320000000007   T   T   T
  0.6281910000000011  0.2925559999999976  0.4525840000000017   T   T   T
  0.6281910000000011  0.3758910000000029  0.4117320000000007   T   T   T
  0.5448560000000029  0.3758910000000029  0.4525840000000017   T   T   T
  0.5448560000000029  0.2925559999999976  0.4117320000000007   T   T   T
  0.4615220000000022  0.2925559999999976  0.4525840000000017   T   T   T
  0.4615220000000022  0.3758910000000029  0.4117320000000007   T   T   T
  0.3781869999999969  0.3758910000000029  0.4525840000000017   T   T   T
  0.3781869999999969  0.2925559999999976  0.4117320000000007   T   T   T
  0.2948530000000034  0.2925559999999976  0.4525840000000017   T   T   T
  0.2948530000000034  0.3758910000000029  0.4117320000000007   T   T   T
  0.2115179999999981  0.3758910000000029  0.4525840000000017   T   T   T
  0.2115179999999981  0.2925559999999976  0.4117320000000007   T   T   T
  0.1281839999999974  0.2925559999999976  0.4525840000000017   T   T   T
  0.1281839999999974  0.3758910000000029  0.4117320000000007   T   T   T
  0.0448489999999993  0.3758910000000029  0.4525840000000017   T   T   T
  0.0448489999999993  0.2925559999999976  0.4117320000000007   T   T   T
  0.9615289999999987  0.4592250000000035  0.4525840000000017   T   T   T
  0.9615289999999987  0.5425600000000017  0.4117320000000007   T   T   T
  0.8781940000000006  0.5425600000000017  0.4525840000000017   T   T   T
  0.8781940000000006  0.4592250000000035  0.4117320000000007   T   T   T
  0.7948599999999999  0.4592250000000035  0.4525840000000017   T   T   T
  0.7948599999999999  0.5425600000000017  0.4117320000000007   T   T   T
  0.7115250000000017  0.5425600000000017  0.4525840000000017   T   T   T
  0.7115250000000017  0.4592250000000035  0.4117320000000007   T   T   T
  0.6281910000000011  0.4592250000000035  0.4525840000000017   T   T   T
  0.6281910000000011  0.5425600000000017  0.4117320000000007   T   T   T
  0.5448560000000029  0.5425600000000017  0.4525840000000017   T   T   T
  0.5448560000000029  0.4592250000000035  0.4117320000000007   T   T   T
  0.4615220000000022  0.4592250000000035  0.4525840000000017   T   T   T
  0.4615220000000022  0.5425600000000017  0.4117320000000007   T   T   T
  0.3781869999999969  0.5425600000000017  0.4525840000000017   T   T   T
  0.3781869999999969  0.4592250000000035  0.4117320000000007   T   T   T
  0.2948530000000034  0.4592250000000035  0.4525840000000017   T   T   T
  0.2948530000000034  0.5425600000000017  0.4117320000000007   T   T   T
  0.2115179999999981  0.5425589999999971  0.4525840000000017   T   T   T
  0.2115179999999981  0.4592250000000035  0.4117320000000007   T   T   T
  0.1281839999999974  0.4592250000000035  0.4525840000000017   T   T   T
  0.1281839999999974  0.5425589999999971  0.4117320000000007   T   T   T
  0.0448489999999993  0.5425589999999971  0.4525840000000017   T   T   T
  0.0448489999999993  0.4592250000000035  0.4117320000000007   T   T   T
  0.9615289999999987  0.6258940000000024  0.4525840000000017   T   T   T
  0.9615289999999987  0.7092280000000031  0.4117320000000007   T   T   T
  0.8781940000000006  0.7092280000000031  0.4525840000000017   T   T   T
  0.8781940000000006  0.6258940000000024  0.4117320000000007   T   T   T
  0.7948599999999999  0.6258940000000024  0.4525840000000017   T   T   T
  0.7948599999999999  0.7092280000000031  0.4117320000000007   T   T   T
  0.7115250000000017  0.7092280000000031  0.4525840000000017   T   T   T
  0.7115250000000017  0.6258940000000024  0.4117320000000007   T   T   T
  0.6281910000000011  0.6258940000000024  0.4525840000000017   T   T   T
  0.6281910000000011  0.7092280000000031  0.4117320000000007   T   T   T
  0.5448560000000029  0.7092280000000031  0.4525840000000017   T   T   T
  0.5448560000000029  0.6258940000000024  0.4117320000000007   T   T   T
  0.4615220000000022  0.6258940000000024  0.4525840000000017   T   T   T
  0.4615220000000022  0.7092280000000031  0.4117320000000007   T   T   T
  0.3781869999999969  0.7092280000000031  0.4525840000000017   T   T   T
  0.3781869999999969  0.6258940000000024  0.4117320000000007   T   T   T
  0.2948530000000034  0.6258940000000024  0.4525840000000017   T   T   T
  0.2948530000000034  0.7092280000000031  0.4117320000000007   T   T   T
  0.2115179999999981  0.7092280000000031  0.4525840000000017   T   T   T
  0.2115179999999981  0.6258940000000024  0.4117320000000007   T   T   T
  0.1281839999999974  0.6258940000000024  0.4525840000000017   T   T   T
  0.1281839999999974  0.7092280000000031  0.4117320000000007   T   T   T
  0.0448489999999993  0.7092280000000031  0.4525840000000017   T   T   T
  0.0448489999999993  0.6258940000000024  0.4117320000000007   T   T   T
  0.9615289999999987  0.7925630000000012  0.4525840000000017   T   T   T
  0.9615289999999987  0.8758979999999994  0.4117320000000007   T   T   T
  0.8781940000000006  0.8758979999999994  0.4525840000000017   T   T   T
  0.8781940000000006  0.7925630000000012  0.4117320000000007   T   T   T
  0.7948599999999999  0.7925630000000012  0.4525840000000017   T   T   T
  0.7948599999999999  0.8758979999999994  0.4117320000000007   T   T   T
  0.7115250000000017  0.8758979999999994  0.4525840000000017   T   T   T
  0.7115250000000017  0.7925630000000012  0.4117320000000007   T   T   T
  0.6281910000000011  0.7925630000000012  0.4525840000000017   T   T   T
  0.6281910000000011  0.8758979999999994  0.4117320000000007   T   T   T