Cu1-In1-Se2 'I -4 2 d'  #122
1.0 
  5.782400   0.000000   0.000000
  0.000000   5.782400   0.000000
  0.000000   0.000000  11.619200
  Cu  In  Se
  4  4  8
Direct
 -0.000000   0.500000   0.250000
  0.000000  -0.000000  -0.000000
  0.500000  -0.000000   0.750000
  0.500000   0.500000   0.500000
 -0.000000   0.500000   0.750000
  0.000000  -0.000000   0.500000
  0.500000  -0.000000   0.250000
  0.500000   0.500000   0.000000
  0.750000   0.265000   0.375000
  0.250000   0.765000   0.875000
  0.250000   0.735000   0.375000
  0.750000   0.235000   0.875000
  0.235000   0.250000   0.125000
  0.765000   0.750000   0.125000
  0.735000   0.750000   0.625000
  0.265000   0.250000   0.625000


